Ordonnancement/plne/source/petit_instance/5job/5job_15.dat
data;
param nombreJob := 5;
param nombreRessource := 3;
param duree := 1 10 2 3 3 2 4 5 5 3;
param capaciteRessource := 1 5 2 8 3 17;
param besoinRessource : 1 2 3 :=
                    1   3 6 4
                    2   1 7 1
                    3   2 8 2
                    4   2 2 1
                    5   2 1 3;
end;

