Ordonnancement/plne/source/glpk_resultat/5job/5job_15.sol
Problem:    glpsolRcpsp
Rows:       295
Columns:    116 (115 integer, 115 binary)
Non-zeros:  2056
Status:     INTEGER OPTIMAL
Objective:  obj = 15 (MINimum)

   No.   Row name        Activity     Lower bound   Upper bound
------ ------------    ------------- ------------- -------------
     1 periode[1]                 10            10             = 
     2 periode[2]                  3             3             = 
     3 periode[3]                  2             2             = 
     4 periode[4]                  5             5             = 
     5 periode[5]                  3             3             = 
     6 complet[1,1]                8                          10 
     7 complet[1,2]                7                          10 
     8 complet[1,3]                6                          10 
     9 complet[1,4]                5                          10 
    10 complet[1,5]                4                          10 
    11 complet[1,6]                3                          10 
    12 complet[1,7]                2                          10 
    13 complet[1,8]                1                          10 
    14 complet[1,9]                0                          10 
    15 complet[1,10]
                                  10                          10 
    16 complet[1,11]
                                   0                          10 
    17 complet[1,12]
                                   0                          10 
    18 complet[1,13]
                                   0                          10 
    19 complet[1,14]
                                   0                          10 
    20 complet[1,15]
                                   0                          10 
    21 complet[1,16]
                                   0                          10 
    22 complet[1,17]
                                   0                          10 
    23 complet[1,18]
                                   0                          10 
    24 complet[1,19]
                                   0                          10 
    25 complet[1,20]
                                   0                          10 
    26 complet[1,21]
                                   0                          10 
    27 complet[2,1]                3                           3 
    28 complet[2,2]                3                           3 
    29 complet[2,3]                3                           3 
    30 complet[2,4]                3                           3 
    31 complet[2,5]                3                           3 
    32 complet[2,6]                3                           3 
    33 complet[2,7]                3                           3 
    34 complet[2,8]                3                           3 
    35 complet[2,9]                3                           3 
    36 complet[2,10]
                                   3                           3 
    37 complet[2,11]
                                   3                           3 
    38 complet[2,12]
                                  -1                           3 
    39 complet[2,13]
                                   1                           3 
    40 complet[2,14]
                                   0                           3 
    41 complet[2,15]
                                   3                           3 
    42 complet[2,16]
                                   0                           3 
    43 complet[2,17]
                                   0                           3 
    44 complet[2,18]
                                   0                           3 
    45 complet[2,19]
                                   0                           3 
    46 complet[2,20]
                                   0                           3 
    47 complet[2,21]
                                   0                           3 
    48 complet[3,1]                2                           2 
    49 complet[3,2]                2                           2 
    50 complet[3,3]                2                           2 
    51 complet[3,4]                2                           2 
    52 complet[3,5]                2                           2 
    53 complet[3,6]                2                           2 
    54 complet[3,7]                2                           2 
    55 complet[3,8]                2                           2 
    56 complet[3,9]                2                           2 
    57 complet[3,10]
                                  -1                           2 
    58 complet[3,11]
                                   0                           2 
    59 complet[3,12]
                                   2                           2 
    60 complet[3,13]
                                   0                           2 
    61 complet[3,14]
                                   0                           2 
    62 complet[3,15]
                                   0                           2 
    63 complet[3,16]
                                   0                           2 
    64 complet[3,17]
                                   0                           2 
    65 complet[3,18]
                                   0                           2 
    66 complet[3,19]
                                   0                           2 
    67 complet[3,20]
                                   0                           2 
    68 complet[3,21]
                                   0                           2 
    69 complet[4,1]               -1                           5 
    70 complet[4,2]                3                           5 
    71 complet[4,3]                2                           5 
    72 complet[4,4]                1                           5 
    73 complet[4,5]                0                           5 
    74 complet[4,6]                5                           5 
    75 complet[4,7]                0                           5 
    76 complet[4,8]                0                           5 
    77 complet[4,9]                0                           5 
    78 complet[4,10]
                                   0                           5 
    79 complet[4,11]
                                   0                           5 
    80 complet[4,12]
                                   0                           5 
    81 complet[4,13]
                                   0                           5 
    82 complet[4,14]
                                   0                           5 
    83 complet[4,15]
                                   0                           5 
    84 complet[4,16]
                                   0                           5 
    85 complet[4,17]
                                   0                           5 
    86 complet[4,18]
                                   0                           5 
    87 complet[4,19]
                                   0                           5 
    88 complet[4,20]
                                   0                           5 
    89 complet[4,21]
                                   0                           5 
    90 complet[5,1]                3                           3 
    91 complet[5,2]                3                           3 
    92 complet[5,3]                3                           3 
    93 complet[5,4]                3                           3 
    94 complet[5,5]                3                           3 
    95 complet[5,6]               -1                           3 
    96 complet[5,7]                1                           3 
    97 complet[5,8]                0                           3 
    98 complet[5,9]                3                           3 
    99 complet[5,10]
                                   0                           3 
   100 complet[5,11]
                                   0                           3 
   101 complet[5,12]
                                   0                           3 
   102 complet[5,13]
                                   0                           3 
   103 complet[5,14]
                                   0                           3 
   104 complet[5,15]
                                   0                           3 
   105 complet[5,16]
                                   0                           3 
   106 complet[5,17]
                                   0                           3 
   107 complet[5,18]
                                   0                           3 
   108 complet[5,19]
                                   0                           3 
   109 complet[5,20]
                                   0                           3 
   110 complet[5,21]
                                   0                           3 
   111 cmax[1,1]                  14            -0               
   112 cmax[1,2]                  13            -0               
   113 cmax[1,3]                  12            -0               
   114 cmax[1,4]                  11            -0               
   115 cmax[1,5]                  10            -0               
   116 cmax[1,6]                   9            -0               
   117 cmax[1,7]                   8            -0               
   118 cmax[1,8]                   7            -0               
   119 cmax[1,9]                   6            -0               
   120 cmax[1,10]                  5            -0               
   121 cmax[1,11]                 15            -0               
   122 cmax[1,12]                 15            -0               
   123 cmax[1,13]                 15            -0               
   124 cmax[1,14]                 15            -0               
   125 cmax[1,15]                 15            -0               
   126 cmax[1,16]                 15            -0               
   127 cmax[1,17]                 15            -0               
   128 cmax[1,18]                 15            -0               
   129 cmax[1,19]                 15            -0               
   130 cmax[1,20]                 15            -0               
   131 cmax[1,21]                 15            -0               
   132 cmax[1,22]                 15            -0               
   133 cmax[1,23]                 15            -0               
   134 cmax[2,1]                  15            -0               
   135 cmax[2,2]                  15            -0               
   136 cmax[2,3]                  15            -0               
   137 cmax[2,4]                  15            -0               
   138 cmax[2,5]                  15            -0               
   139 cmax[2,6]                  15            -0               
   140 cmax[2,7]                  15            -0               
   141 cmax[2,8]                  15            -0               
   142 cmax[2,9]                  15            -0               
   143 cmax[2,10]                 15            -0               
   144 cmax[2,11]                 15            -0               
   145 cmax[2,12]                 15            -0               
   146 cmax[2,13]                  2            -0               
   147 cmax[2,14]                  1            -0               
   148 cmax[2,15]                  0            -0               
   149 cmax[2,16]                 15            -0               
   150 cmax[2,17]                 15            -0               
   151 cmax[2,18]                 15            -0               
   152 cmax[2,19]                 15            -0               
   153 cmax[2,20]                 15            -0               
   154 cmax[2,21]                 15            -0               
   155 cmax[2,22]                 15            -0               
   156 cmax[2,23]                 15            -0               
   157 cmax[3,1]                  15            -0               
   158 cmax[3,2]                  15            -0               
   159 cmax[3,3]                  15            -0               
   160 cmax[3,4]                  15            -0               
   161 cmax[3,5]                  15            -0               
   162 cmax[3,6]                  15            -0               
   163 cmax[3,7]                  15            -0               
   164 cmax[3,8]                  15            -0               
   165 cmax[3,9]                  15            -0               
   166 cmax[3,10]                 15            -0               
   167 cmax[3,11]                  4            -0               
   168 cmax[3,12]                  3            -0               
   169 cmax[3,13]                 15            -0               
   170 cmax[3,14]                 15            -0               
   171 cmax[3,15]                 15            -0               
   172 cmax[3,16]                 15            -0               
   173 cmax[3,17]                 15            -0               
   174 cmax[3,18]                 15            -0               
   175 cmax[3,19]                 15            -0               
   176 cmax[3,20]                 15            -0               
   177 cmax[3,21]                 15            -0               
   178 cmax[3,22]                 15            -0               
   179 cmax[3,23]                 15            -0               
   180 cmax[4,1]                  15            -0               
   181 cmax[4,2]                  13            -0               
   182 cmax[4,3]                  12            -0               
   183 cmax[4,4]                  11            -0               
   184 cmax[4,5]                  10            -0               
   185 cmax[4,6]                   9            -0               
   186 cmax[4,7]                  15            -0               
   187 cmax[4,8]                  15            -0               
   188 cmax[4,9]                  15            -0               
   189 cmax[4,10]                 15            -0               
   190 cmax[4,11]                 15            -0               
   191 cmax[4,12]                 15            -0               
   192 cmax[4,13]                 15            -0               
   193 cmax[4,14]                 15            -0               
   194 cmax[4,15]                 15            -0               
   195 cmax[4,16]                 15            -0               
   196 cmax[4,17]                 15            -0               
   197 cmax[4,18]                 15            -0               
   198 cmax[4,19]                 15            -0               
   199 cmax[4,20]                 15            -0               
   200 cmax[4,21]                 15            -0               
   201 cmax[4,22]                 15            -0               
   202 cmax[4,23]                 15            -0               
   203 cmax[5,1]                  15            -0               
   204 cmax[5,2]                  15            -0               
   205 cmax[5,3]                  15            -0               
   206 cmax[5,4]                  15            -0               
   207 cmax[5,5]                  15            -0               
   208 cmax[5,6]                  15            -0               
   209 cmax[5,7]                   8            -0               
   210 cmax[5,8]                   7            -0               
   211 cmax[5,9]                   6            -0               
   212 cmax[5,10]                 15            -0               
   213 cmax[5,11]                 15            -0               
   214 cmax[5,12]                 15            -0               
   215 cmax[5,13]                 15            -0               
   216 cmax[5,14]                 15            -0               
   217 cmax[5,15]                 15            -0               
   218 cmax[5,16]                 15            -0               
   219 cmax[5,17]                 15            -0               
   220 cmax[5,18]                 15            -0               
   221 cmax[5,19]                 15            -0               
   222 cmax[5,20]                 15            -0               
   223 cmax[5,21]                 15            -0               
   224 cmax[5,22]                 15            -0               
   225 cmax[5,23]                 15            -0               
   226 ressource[1,1]
                                   3                           5 
   227 ressource[1,2]
                                   5                           5 
   228 ressource[1,3]
                                   5                           5 
   229 ressource[1,4]
                                   5                           5 
   230 ressource[1,5]
                                   5                           5 
   231 ressource[1,6]
                                   5                           5 
   232 ressource[1,7]
                                   5                           5 
   233 ressource[1,8]
                                   5                           5 
   234 ressource[1,9]
                                   5                           5 
   235 ressource[1,10]
                                   3                           5 
   236 ressource[1,11]
                                   2                           5 
   237 ressource[1,12]
                                   2                           5 
   238 ressource[1,13]
                                   1                           5 
   239 ressource[1,14]
                                   1                           5 
   240 ressource[1,15]
                                   1                           5 
   241 ressource[1,16]
                                   0                           5 
   242 ressource[1,17]
                                   0                           5 
   243 ressource[1,18]
                                   0                           5 
   244 ressource[1,19]
                                   0                           5 
   245 ressource[1,20]
                                   0                           5 
   246 ressource[1,21]
                                   0                           5 
   247 ressource[1,22]
                                   0                           5 
   248 ressource[1,23]
                                   0                           5 
   249 ressource[2,1]
                                   6                           8 
   250 ressource[2,2]
                                   8                           8 
   251 ressource[2,3]
                                   8                           8 
   252 ressource[2,4]
                                   8                           8 
   253 ressource[2,5]
                                   8                           8 
   254 ressource[2,6]
                                   8                           8 
   255 ressource[2,7]
                                   7                           8 
   256 ressource[2,8]
                                   7                           8 
   257 ressource[2,9]
                                   7                           8 
   258 ressource[2,10]
                                   6                           8 
   259 ressource[2,11]
                                   8                           8 
   260 ressource[2,12]
                                   8                           8 
   261 ressource[2,13]
                                   7                           8 
   262 ressource[2,14]
                                   7                           8 
   263 ressource[2,15]
                                   7                           8 
   264 ressource[2,16]
                                   0                           8 
   265 ressource[2,17]
                                   0                           8 
   266 ressource[2,18]
                                   0                           8 
   267 ressource[2,19]
                                   0                           8 
   268 ressource[2,20]
                                   0                           8 
   269 ressource[2,21]
                                   0                           8 
   270 ressource[2,22]
                                   0                           8 
   271 ressource[2,23]
                                   0                           8 
   272 ressource[3,1]
                                   4                          17 
   273 ressource[3,2]
                                   5                          17 
   274 ressource[3,3]
                                   5                          17 
   275 ressource[3,4]
                                   5                          17 
   276 ressource[3,5]
                                   5                          17 
   277 ressource[3,6]
                                   5                          17 
   278 ressource[3,7]
                                   7                          17 
   279 ressource[3,8]
                                   7                          17 
   280 ressource[3,9]
                                   7                          17 
   281 ressource[3,10]
                                   4                          17 
   282 ressource[3,11]
                                   2                          17 
   283 ressource[3,12]
                                   2                          17 
   284 ressource[3,13]
                                   1                          17 
   285 ressource[3,14]
                                   1                          17 
   286 ressource[3,15]
                                   1                          17 
   287 ressource[3,16]
                                   0                          17 
   288 ressource[3,17]
                                   0                          17 
   289 ressource[3,18]
                                   0                          17 
   290 ressource[3,19]
                                   0                          17 
   291 ressource[3,20]
                                   0                          17 
   292 ressource[3,21]
                                   0                          17 
   293 ressource[3,22]
                                   0                          17 
   294 ressource[3,23]
                                   0                          17 
   295 obj                        15                             

   No. Column name       Activity     Lower bound   Upper bound
------ ------------    ------------- ------------- -------------
     1 x[1,1]       *              1             0             1 
     2 x[1,2]       *              1             0             1 
     3 x[1,3]       *              1             0             1 
     4 x[1,4]       *              1             0             1 
     5 x[1,5]       *              1             0             1 
     6 x[1,6]       *              1             0             1 
     7 x[1,7]       *              1             0             1 
     8 x[1,8]       *              1             0             1 
     9 x[1,9]       *              1             0             1 
    10 x[1,10]      *              1             0             1 
    11 x[1,11]      *              0             0             1 
    12 x[1,12]      *              0             0             1 
    13 x[1,13]      *              0             0             1 
    14 x[1,14]      *              0             0             1 
    15 x[1,15]      *              0             0             1 
    16 x[1,16]      *              0             0             1 
    17 x[1,17]      *              0             0             1 
    18 x[1,18]      *              0             0             1 
    19 x[1,19]      *              0             0             1 
    20 x[1,20]      *              0             0             1 
    21 x[1,21]      *              0             0             1 
    22 x[1,22]      *              0             0             1 
    23 x[1,23]      *              0             0             1 
    24 x[2,1]       *              0             0             1 
    25 x[2,2]       *              0             0             1 
    26 x[2,3]       *              0             0             1 
    27 x[2,4]       *              0             0             1 
    28 x[2,5]       *              0             0             1 
    29 x[2,6]       *              0             0             1 
    30 x[2,7]       *              0             0             1 
    31 x[2,8]       *              0             0             1 
    32 x[2,9]       *              0             0             1 
    33 x[2,10]      *              0             0             1 
    34 x[2,11]      *              0             0             1 
    35 x[2,12]      *              0             0             1 
    36 x[2,13]      *              1             0             1 
    37 x[2,14]      *              1             0             1 
    38 x[2,15]      *              1             0             1 
    39 x[2,16]      *              0             0             1 
    40 x[2,17]      *              0             0             1 
    41 x[2,18]      *              0             0             1 
    42 x[2,19]      *              0             0             1 
    43 x[2,20]      *              0             0             1 
    44 x[2,21]      *              0             0             1 
    45 x[2,22]      *              0             0             1 
    46 x[2,23]      *              0             0             1 
    47 x[3,1]       *              0             0             1 
    48 x[3,2]       *              0             0             1 
    49 x[3,3]       *              0             0             1 
    50 x[3,4]       *              0             0             1 
    51 x[3,5]       *              0             0             1 
    52 x[3,6]       *              0             0             1 
    53 x[3,7]       *              0             0             1 
    54 x[3,8]       *              0             0             1 
    55 x[3,9]       *              0             0             1 
    56 x[3,10]      *              0             0             1 
    57 x[3,11]      *              1             0             1 
    58 x[3,12]      *              1             0             1 
    59 x[3,13]      *              0             0             1 
    60 x[3,14]      *              0             0             1 
    61 x[3,15]      *              0             0             1 
    62 x[3,16]      *              0             0             1 
    63 x[3,17]      *              0             0             1 
    64 x[3,18]      *              0             0             1 
    65 x[3,19]      *              0             0             1 
    66 x[3,20]      *              0             0             1 
    67 x[3,21]      *              0             0             1 
    68 x[3,22]      *              0             0             1 
    69 x[3,23]      *              0             0             1 
    70 x[4,1]       *              0             0             1 
    71 x[4,2]       *              1             0             1 
    72 x[4,3]       *              1             0             1 
    73 x[4,4]       *              1             0             1 
    74 x[4,5]       *              1             0             1 
    75 x[4,6]       *              1             0             1 
    76 x[4,7]       *              0             0             1 
    77 x[4,8]       *              0             0             1 
    78 x[4,9]       *              0             0             1 
    79 x[4,10]      *              0             0             1 
    80 x[4,11]      *              0             0             1 
    81 x[4,12]      *              0             0             1 
    82 x[4,13]      *              0             0             1 
    83 x[4,14]      *              0             0             1 
    84 x[4,15]      *              0             0             1 
    85 x[4,16]      *              0             0             1 
    86 x[4,17]      *              0             0             1 
    87 x[4,18]      *              0             0             1 
    88 x[4,19]      *              0             0             1 
    89 x[4,20]      *              0             0             1 
    90 x[4,21]      *              0             0             1 
    91 x[4,22]      *              0             0             1 
    92 x[4,23]      *              0             0             1 
    93 x[5,1]       *              0             0             1 
    94 x[5,2]       *              0             0             1 
    95 x[5,3]       *              0             0             1 
    96 x[5,4]       *              0             0             1 
    97 x[5,5]       *              0             0             1 
    98 x[5,6]       *              0             0             1 
    99 x[5,7]       *              1             0             1 
   100 x[5,8]       *              1             0             1 
   101 x[5,9]       *              1             0             1 
   102 x[5,10]      *              0             0             1 
   103 x[5,11]      *              0             0             1 
   104 x[5,12]      *              0             0             1 
   105 x[5,13]      *              0             0             1 
   106 x[5,14]      *              0             0             1 
   107 x[5,15]      *              0             0             1 
   108 x[5,16]      *              0             0             1 
   109 x[5,17]      *              0             0             1 
   110 x[5,18]      *              0             0             1 
   111 x[5,19]      *              0             0             1 
   112 x[5,20]      *              0             0             1 
   113 x[5,21]      *              0             0             1 
   114 x[5,22]      *              0             0             1 
   115 x[5,23]      *              0             0             1 
   116 z                          15                             

Integer feasibility conditions:

KKT.PE: max.abs.err = 0.00e+00 on row 0
        max.rel.err = 0.00e+00 on row 0
        High quality

KKT.PB: max.abs.err = 0.00e+00 on row 0
        max.rel.err = 0.00e+00 on row 0
        High quality

End of output
